c WARNING: for repeatability, setting FPU to use double precision
d VARIABLES            197920       
d CONSTRAINTS          900801       
c ============================[ Problem Statistics ]=============================
c |                                                                             |
c |  Number of variables:        197920                                         |
c |  Number of clauses:          900801                                         |
c |  Parse time:                   0.15 s                                       |
c |                                                                             |
c ============================[ Search Statistics ]==============================
c | Conflicts |          ORIGINAL         |          LEARNT          | Progress |
c |           |    Vars  Clauses Literals |    Limit  Clauses Lit/Cl |          |
c ===============================================================================
c |       100 |  173516   831317  2011258 |   304816       99     84 | 12.330 % |
c |       250 |  173516   831317  2011258 |   335297      249     66 | 12.330 % |
c |       475 |  173516   831317  2011258 |   368827      474     75 | 12.330 % |
c |       812 |  173516   831192  2010958 |   405710      811    102 | 12.330 % |
c |      1318 |  173516   831192  2010958 |   446281     1317    113 | 12.330 % |
c |      2077 |  173516   831192  2010958 |   490909     2076     99 | 12.330 % |
c |      3216 |  173516   831192  2010958 |   540000     3215    117 | 12.330 % |
c |      4924 |  173516   831192  2010958 |   594000     4923    105 | 12.330 % |
c |      7486 |  173516   831192  2010958 |   653400     7485    121 | 12.330 % |
c |     11330 |  173516   831192  2010958 |   718740    11329    151 | 12.330 % |
c |     17096 |  173516   831192  2010958 |   790614    17095    148 | 12.330 % |
c |     25745 |  173516   831192  2010958 |   869676    25744    157 | 12.330 % |
c |     38719 |  173515   831180  2010929 |   956643    38716    169 | 12.331 % |
c |     58180 |  173514   831168  2010900 |  1052308    58176    195 | 12.331 % |
c |     87372 |  173514   831168  2010900 |  1157539    87368    197 | 12.331 % |
c |    131161 |  173514   831168  2010900 |  1273293   131157    222 | 12.331 % |
c |    196845 |  173512   831144  2010842 |  1400622   196834    211 | 12.332 % |
c |    295371 |  173510   831122  2010789 |  1540684   295336    208 | 12.333 % |
c |    443160 |  173496   831006  2010511 |  1694753   442007    194 | 12.340 % |
c ===============================================================================
c restarts              : 1165
c conflicts             : 560733         (1134 /sec)
c decisions             : 2196160        (0.00 % random) (4442 /sec)
c propagations          : 1424217778     (2880333 /sec)
c conflict literals     : 112973869      (35.21 % deleted)
d RESTARTS             1165
d FAILURES             560733       
d NODES                2196160      
d BACKTRACKS           2196160      
d PROPAGATIONS         1424217778   
d NOGOODSIZE           201.48 
d MEMORY               638.00 
d TIME                 494.463 

s UNSATISFIABLE
